c status 12 1469386936897
c status 10 1469386936898
c status 9 1469386936899
s td 24 9 32
b 1 9 32 8 18
b 2 32 2 8 18 11
b 3 2 8 18 11 13 1
b 4 30 29 8 1
b 5 29 28 8 7 1
b 6 4 24 11 14
b 7 24 27 11 14 13
b 8 27 28 5 11 14 13
b 9 28 6 8 7 5 11 14 13 1
b 10 6 16 8 7 5 11 14 13 1
b 11 16 8 25 7 5 11 14 13 1
b 12 8 25 7 18 5 11 14 13 1
b 13 21 12 25 18
b 14 12 3 25 18 5
b 15 3 10 25 18 5 13
b 16 31 17 10 1
b 17 17 26 10 7 1
b 18 15 23 7 5
b 19 23 20 7 18 5
b 20 20 26 7 18 5 11
b 21 26 22 10 7 18 5 11 1
b 22 22 19 10 7 18 5 11 14 1
b 23 19 10 25 7 18 5 11 14 1
b 24 10 25 7 18 5 11 14 13 1
1 2
2 3
3 12
12 11
12 24
11 10
24 23
10 9
23 22
22 21
24 15
9 8
21 20
9 5
15 14
21 17
8 7
20 19
7 6
5 4
14 13
17 16
19 18
